(set-logic QF_UF)
(declare-fun A0 () Bool)
(declare-fun A1 () Bool)
(declare-fun A2 () Bool)
(declare-fun A3 () Bool)
(declare-fun A4 () Bool)
(declare-fun A5 () Bool)
(declare-fun A6 () Bool)
(declare-fun A7 () Bool)
(declare-fun A8 () Bool)
(declare-fun A9 () Bool)
(declare-fun A10 () Bool)
(declare-fun A11 () Bool)
(declare-fun A12 () Bool)
(declare-fun A13 () Bool)
(declare-fun A14 () Bool)
(declare-fun A15 () Bool)
(declare-fun A16 () Bool)
(declare-fun A17 () Bool)
(declare-fun A18 () Bool)
(declare-fun A19 () Bool)
(declare-fun A20 () Bool)
(declare-fun A21 () Bool)
(declare-fun A22 () Bool)
(declare-fun A23 () Bool)
(declare-fun A24 () Bool)
(assert (let ((.def_0 (not A3))) (let ((.def_1 (not A14))) (let ((.def_2 (or .def_1 .def_0))) (let ((.def_3 (not A11))) (let ((.def_4 (or .def_3 A0))) (let ((.def_5 (or .def_4 .def_2))) (let ((.def_6 (and A10 A6))) (let ((.def_7 (and A3 A15))) (let ((.def_8 (not .def_7))) (let ((.def_9 (and .def_8 .def_6))) (let ((.def_10 (= .def_9 .def_5))) (let ((.def_11 (not A6))) (let ((.def_12 (and .def_11 A5))) (let ((.def_13 (not .def_12))) (let ((.def_14 (not A22))) (let ((.def_15 (or .def_14 A19))) (let ((.def_16 (or .def_15 .def_13))) (let ((.def_17 (not A12))) (let ((.def_18 (and A16 .def_17))) (let ((.def_19 (not .def_18))) (let ((.def_20 (not A21))) (let ((.def_21 (= .def_20 A7))) (let ((.def_22 (or .def_21 .def_19))) (let ((.def_23 (= .def_22 .def_16))) (let ((.def_24 (not .def_23))) (let ((.def_25 (or .def_24 .def_10))) (let ((.def_26 (= A18 A1))) (let ((.def_27 (not .def_26))) (let ((.def_28 (not A16))) (let ((.def_29 (not A24))) (let ((.def_30 (and .def_29 .def_28))) (let ((.def_31 (and .def_30 .def_27))) (let ((.def_32 (not A5))) (let ((.def_33 (not A8))) (let ((.def_34 (or .def_33 .def_32))) (let ((.def_35 (or A7 A18))) (let ((.def_36 (or .def_35 .def_34))) (let ((.def_37 (not .def_36))) (let ((.def_38 (= .def_37 .def_31))) (let ((.def_39 (not .def_38))) (let ((.def_40 (or .def_20 A4))) (let ((.def_41 (not A0))) (let ((.def_42 (or .def_41 A5))) (let ((.def_43 (not .def_42))) (let ((.def_44 (or .def_43 .def_40))) (let ((.def_45 (or .def_28 .def_14))) (let ((.def_46 (not .def_45))) (let ((.def_47 (and A15 .def_0))) (let ((.def_48 (and .def_47 .def_46))) (let ((.def_49 (not .def_48))) (let ((.def_50 (or .def_49 .def_44))) (let ((.def_51 (not .def_50))) (let ((.def_52 (or .def_51 .def_39))) (let ((.def_53 (and .def_52 .def_25))) (let ((.def_54 (not .def_53))) (let ((.def_55 (not A18))) (let ((.def_56 (not A9))) (let ((.def_57 (or .def_56 .def_55))) (let ((.def_58 (not .def_57))) (let ((.def_59 (and .def_55 A8))) (let ((.def_60 (not .def_59))) (let ((.def_61 (and .def_60 .def_58))) (let ((.def_62 (not A13))) (let ((.def_63 (or .def_62 A6))) (let ((.def_64 (not .def_63))) (let ((.def_65 (not A15))) (let ((.def_66 (or .def_65 A12))) (let ((.def_67 (or .def_66 .def_64))) (let ((.def_68 (not .def_67))) (let ((.def_69 (and .def_68 .def_61))) (let ((.def_70 (not A19))) (let ((.def_71 (or .def_56 .def_70))) (let ((.def_72 (and .def_11 A7))) (let ((.def_73 (and .def_72 .def_71))) (let ((.def_74 (not .def_73))) (let ((.def_75 (or A14 .def_11))) (let ((.def_76 (not .def_75))) (let ((.def_77 (or A24 A4))) (let ((.def_78 (= .def_77 .def_76))) (let ((.def_79 (and .def_78 .def_74))) (let ((.def_80 (not .def_79))) (let ((.def_81 (and .def_80 .def_69))) (let ((.def_82 (not .def_81))) (let ((.def_83 (not A20))) (let ((.def_84 (= .def_65 .def_83))) (let ((.def_85 (or .def_3 A7))) (let ((.def_86 (or .def_85 .def_84))) (let ((.def_87 (not A4))) (let ((.def_88 (and .def_87 A17))) (let ((.def_89 (not .def_88))) (let ((.def_90 (or .def_33 .def_29))) (let ((.def_91 (not .def_90))) (let ((.def_92 (and .def_91 .def_89))) (let ((.def_93 (not .def_92))) (let ((.def_94 (or .def_93 .def_86))) (let ((.def_95 (and A16 A14))) (let ((.def_96 (or .def_87 .def_33))) (let ((.def_97 (not .def_96))) (let ((.def_98 (or .def_97 .def_95))) (let ((.def_99 (and A3 .def_3))) (let ((.def_100 (not A23))) (let ((.def_101 (and .def_100 A16))) (let ((.def_102 (and .def_101 .def_99))) (let ((.def_103 (not .def_102))) (let ((.def_104 (and .def_103 .def_98))) (let ((.def_105 (or .def_104 .def_94))) (let ((.def_106 (and .def_105 .def_82))) (let ((.def_107 (not .def_106))) (let ((.def_108 (and .def_107 .def_54))) (let ((.def_109 (not .def_108))) (let ((.def_110 (not A10))) (let ((.def_111 (and .def_110 .def_33))) (let ((.def_112 (not A7))) (let ((.def_113 (and .def_112 A22))) (let ((.def_114 (and .def_113 .def_111))) (let ((.def_115 (and .def_87 .def_56))) (let ((.def_116 (= .def_29 A14))) (let ((.def_117 (and .def_116 .def_115))) (let ((.def_118 (or .def_117 .def_114))) (let ((.def_119 (not .def_118))) (let ((.def_120 (= .def_33 A6))) (let ((.def_121 (and A8 .def_65))) (let ((.def_122 (or .def_121 .def_120))) (let ((.def_123 (not A1))) (let ((.def_124 (and .def_14 .def_123))) (let ((.def_125 (or A18 A22))) (let ((.def_126 (and .def_125 .def_124))) (let ((.def_127 (or .def_126 .def_122))) (let ((.def_128 (not .def_127))) (let ((.def_129 (and .def_128 .def_119))) (let ((.def_130 (not .def_129))) (let ((.def_131 (not A2))) (let ((.def_132 (= .def_3 .def_131))) (let ((.def_133 (or A14 A1))) (let ((.def_134 (= .def_133 .def_132))) (let ((.def_135 (or .def_112 .def_29))) (let ((.def_136 (not .def_135))) (let ((.def_137 (or .def_110 .def_32))) (let ((.def_138 (not .def_137))) (let ((.def_139 (= .def_138 .def_136))) (let ((.def_140 (not .def_139))) (let ((.def_141 (and .def_140 .def_134))) (let ((.def_142 (not .def_141))) (let ((.def_143 (and .def_33 .def_56))) (let ((.def_144 (not .def_143))) (let ((.def_145 (and A23 .def_112))) (let ((.def_146 (not .def_145))) (let ((.def_147 (and .def_146 .def_144))) (let ((.def_148 (and A0 .def_41))) (let ((.def_149 (not .def_148))) (let ((.def_150 (or A6 .def_110))) (let ((.def_151 (or .def_150 .def_149))) (let ((.def_152 (not .def_151))) (let ((.def_153 (or .def_152 .def_147))) (let ((.def_154 (not .def_153))) (let ((.def_155 (or .def_154 .def_142))) (let ((.def_156 (and .def_155 .def_130))) (let ((.def_157 (not .def_156))) (let ((.def_158 (or .def_20 .def_17))) (let ((.def_159 (or A22 .def_100))) (let ((.def_160 (not .def_159))) (let ((.def_161 (and .def_160 .def_158))) (let ((.def_162 (not .def_161))) (let ((.def_163 (or .def_11 .def_20))) (let ((.def_164 (= A24 A5))) (let ((.def_165 (not .def_164))) (let ((.def_166 (and .def_165 .def_163))) (let ((.def_167 (not .def_166))) (let ((.def_168 (or .def_167 .def_162))) (let ((.def_169 (not .def_168))) (let ((.def_170 (and .def_17 .def_70))) (let ((.def_171 (not .def_170))) (let ((.def_172 (and A13 A4))) (let ((.def_173 (and .def_172 .def_171))) (let ((.def_174 (= A17 .def_83))) (let ((.def_175 (not .def_174))) (let ((.def_176 (and A8 A17))) (let ((.def_177 (not .def_176))) (let ((.def_178 (and .def_177 .def_175))) (let ((.def_179 (not .def_178))) (let ((.def_180 (and .def_179 .def_173))) (let ((.def_181 (not .def_180))) (let ((.def_182 (or .def_181 .def_169))) (let ((.def_183 (not .def_182))) (let ((.def_184 (and .def_70 .def_55))) (let ((.def_185 (and A17 .def_123))) (let ((.def_186 (not .def_185))) (let ((.def_187 (and .def_186 .def_184))) (let ((.def_188 (not .def_187))) (let ((.def_189 (or A22 A20))) (let ((.def_190 (not .def_189))) (let ((.def_191 (and A2 .def_70))) (let ((.def_192 (and .def_191 .def_190))) (let ((.def_193 (= .def_192 .def_188))) (let ((.def_194 (and A7 A2))) (let ((.def_195 (not .def_194))) (let ((.def_196 (and A21 A19))) (let ((.def_197 (not .def_196))) (let ((.def_198 (or .def_197 .def_195))) (let ((.def_199 (not .def_198))) (let ((.def_200 (or A20 A13))) (let ((.def_201 (= A24 A16))) (let ((.def_202 (not .def_201))) (let ((.def_203 (and .def_202 .def_200))) (let ((.def_204 (not .def_203))) (let ((.def_205 (or .def_204 .def_199))) (let ((.def_206 (not .def_205))) (let ((.def_207 (or .def_206 .def_193))) (let ((.def_208 (not .def_207))) (let ((.def_209 (= .def_208 .def_183))) (let ((.def_210 (not .def_209))) (let ((.def_211 (and .def_210 .def_157))) (let ((.def_212 (not .def_211))) (let ((.def_213 (and .def_212 .def_109))) (let ((.def_214 (and .def_20 .def_110))) (let ((.def_215 (not .def_214))) (let ((.def_216 (and .def_3 A3))) (let ((.def_217 (and .def_216 .def_215))) (let ((.def_218 (= A0 .def_110))) (let ((.def_219 (not .def_218))) (let ((.def_220 (or .def_131 A6))) (let ((.def_221 (or .def_220 .def_219))) (let ((.def_222 (and .def_221 .def_217))) (let ((.def_223 (not .def_222))) (let ((.def_224 (not .def_220))) (let ((.def_225 (or A1 .def_29))) (let ((.def_226 (not .def_225))) (let ((.def_227 (and .def_226 .def_224))) (let ((.def_228 (or .def_70 .def_28))) (let ((.def_229 (or .def_0 .def_87))) (let ((.def_230 (not .def_229))) (let ((.def_231 (and .def_230 .def_228))) (let ((.def_232 (and .def_231 .def_227))) (let ((.def_233 (not .def_232))) (let ((.def_234 (and .def_233 .def_223))) (let ((.def_235 (and A12 A14))) (let ((.def_236 (or .def_11 .def_70))) (let ((.def_237 (not .def_236))) (let ((.def_238 (or .def_237 .def_235))) (let ((.def_239 (not .def_238))) (let ((.def_240 (and A21 A7))) (let ((.def_241 (not .def_240))) (let ((.def_242 (and A12 A6))) (let ((.def_243 (or .def_242 .def_241))) (let ((.def_244 (or .def_243 .def_239))) (let ((.def_245 (or A23 .def_70))) (let ((.def_246 (not .def_245))) (let ((.def_247 (or A10 .def_17))) (let ((.def_248 (not .def_247))) (let ((.def_249 (or .def_248 .def_246))) (let ((.def_250 (or A8 A9))) (let ((.def_251 (= .def_20 .def_1))) (let ((.def_252 (not .def_251))) (let ((.def_253 (or .def_252 .def_250))) (let ((.def_254 (and .def_253 .def_249))) (let ((.def_255 (or .def_254 .def_244))) (let ((.def_256 (and .def_255 .def_234))) (let ((.def_257 (and .def_55 .def_20))) (let ((.def_258 (not .def_257))) (let ((.def_259 (and .def_3 A15))) (let ((.def_260 (and .def_259 .def_258))) (let ((.def_261 (or A22 .def_62))) (let ((.def_262 (not .def_261))) (let ((.def_263 (and A4 .def_3))) (let ((.def_264 (or .def_263 .def_262))) (let ((.def_265 (or .def_264 .def_260))) (let ((.def_266 (and .def_3 A19))) (let ((.def_267 (or .def_87 .def_14))) (let ((.def_268 (not .def_267))) (let ((.def_269 (or .def_268 .def_266))) (let ((.def_270 (not .def_269))) (let ((.def_271 (or A11 .def_28))) (let ((.def_272 (not .def_271))) (let ((.def_273 (= .def_28 .def_56))) (let ((.def_274 (or .def_273 .def_272))) (let ((.def_275 (= .def_274 .def_270))) (let ((.def_276 (or .def_275 .def_265))) (let ((.def_277 (not .def_276))) (let ((.def_278 (or A4 .def_1))) (let ((.def_279 (not .def_278))) (let ((.def_280 (and A17 .def_87))) (let ((.def_281 (not .def_280))) (let ((.def_282 (and .def_281 .def_279))) (let ((.def_283 (and .def_100 .def_100))) (let ((.def_284 (not .def_283))) (let ((.def_285 (or A18 .def_83))) (let ((.def_286 (= .def_285 .def_284))) (let ((.def_287 (or .def_286 .def_282))) (let ((.def_288 (and .def_41 A14))) (let ((.def_289 (not .def_288))) (let ((.def_290 (or .def_1 .def_33))) (let ((.def_291 (not .def_290))) (let ((.def_292 (and .def_291 .def_289))) (let ((.def_293 (and A13 .def_17))) (let ((.def_294 (and .def_0 .def_11))) (let ((.def_295 (= .def_294 .def_293))) (let ((.def_296 (not .def_295))) (let ((.def_297 (= .def_296 .def_292))) (let ((.def_298 (not .def_297))) (let ((.def_299 (or .def_298 .def_287))) (let ((.def_300 (and .def_299 .def_277))) (let ((.def_301 (and .def_300 .def_256))) (let ((.def_302 (not .def_301))) (let ((.def_303 (or .def_28 .def_17))) (let ((.def_304 (not .def_303))) (let ((.def_305 (or A4 A18))) (let ((.def_306 (or .def_305 .def_304))) (let ((.def_307 (and .def_87 .def_65))) (let ((.def_308 (and A24 A7))) (let ((.def_309 (not .def_308))) (let ((.def_310 (and .def_309 .def_307))) (let ((.def_311 (= .def_310 .def_306))) (let ((.def_312 (not .def_311))) (let ((.def_313 (and .def_131 A1))) (let ((.def_314 (not .def_313))) (let ((.def_315 (not A17))) (let ((.def_316 (or .def_315 .def_28))) (let ((.def_317 (not .def_316))) (let ((.def_318 (and .def_317 .def_314))) (let ((.def_319 (or A21 A12))) (let ((.def_320 (not .def_319))) (let ((.def_321 (or A20 .def_131))) (let ((.def_322 (and .def_321 .def_320))) (let ((.def_323 (and .def_322 .def_318))) (let ((.def_324 (not .def_323))) (let ((.def_325 (or .def_324 .def_312))) (let ((.def_326 (and A0 A22))) (let ((.def_327 (not .def_326))) (let ((.def_328 (and A16 .def_29))) (let ((.def_329 (and .def_328 .def_327))) (let ((.def_330 (not .def_329))) (let ((.def_331 (or .def_41 A11))) (let ((.def_332 (not .def_331))) (let ((.def_333 (or .def_3 .def_1))) (let ((.def_334 (and .def_333 .def_332))) (let ((.def_335 (not .def_334))) (let ((.def_336 (and .def_335 .def_330))) (let ((.def_337 (or A20 .def_315))) (let ((.def_338 (or .def_55 .def_28))) (let ((.def_339 (not .def_338))) (let ((.def_340 (and .def_339 .def_337))) (let ((.def_341 (or .def_65 A9))) (let ((.def_342 (or .def_14 .def_41))) (let ((.def_343 (and .def_342 .def_341))) (let ((.def_344 (= .def_343 .def_340))) (let ((.def_345 (= .def_344 .def_336))) (let ((.def_346 (and .def_345 .def_325))) (let ((.def_347 (and .def_1 A5))) (let ((.def_348 (not .def_347))) (let ((.def_349 (or .def_110 .def_41))) (let ((.def_350 (or .def_349 .def_348))) (let ((.def_351 (= A4 A21))) (let ((.def_352 (and A11 A2))) (let ((.def_353 (and .def_352 .def_351))) (let ((.def_354 (or .def_353 .def_350))) (let ((.def_355 (or A23 .def_1))) (let ((.def_356 (and .def_14 A8))) (let ((.def_357 (or .def_356 .def_355))) (let ((.def_358 (or A13 A13))) (let ((.def_359 (not .def_358))) (let ((.def_360 (and .def_70 A5))) (let ((.def_361 (not .def_360))) (let ((.def_362 (= .def_361 .def_359))) (let ((.def_363 (and .def_362 .def_357))) (let ((.def_364 (and .def_363 .def_354))) (let ((.def_365 (not .def_364))) (let ((.def_366 (or .def_100 A6))) (let ((.def_367 (= .def_28 A14))) (let ((.def_368 (or .def_367 .def_366))) (let ((.def_369 (not .def_113))) (let ((.def_370 (and .def_110 .def_17))) (let ((.def_371 (and .def_370 .def_369))) (let ((.def_372 (= .def_371 .def_368))) (let ((.def_373 (not .def_372))) (let ((.def_374 (= A14 A7))) (let ((.def_375 (or .def_374 .def_85))) (let ((.def_376 (not .def_375))) (let ((.def_377 (or .def_32 .def_28))) (let ((.def_378 (or .def_315 A22))) (let ((.def_379 (not .def_378))) (let ((.def_380 (or .def_379 .def_377))) (let ((.def_381 (not .def_380))) (let ((.def_382 (or .def_381 .def_376))) (let ((.def_383 (= .def_382 .def_373))) (let ((.def_384 (not .def_383))) (let ((.def_385 (or .def_384 .def_365))) (let ((.def_386 (or .def_385 .def_346))) (let ((.def_387 (not .def_386))) (let ((.def_388 (or .def_387 .def_302))) (let ((.def_389 (not .def_388))) (let ((.def_390 (or .def_389 .def_213))) .def_390))))))))))))))))))))))))))))))))))))))))))))))))))))))))))))))))))))))))))))))))))))))))))))))))))))))))))))))))))))))))))))))))))))))))))))))))))))))))))))))))))))))))))))))))))))))))))))))))))))))))))))))))))))))))))))))))))))))))))))))))))))))))))))))))))))))))))))))))))))))))))))))))))))))))))))))))))))))))))))))))))))))))))))))))))))))))))))))))))))))))))))))))))))))))))))))))))))))))
(check-sat)
